
-8.9
-8.7
-8.5
-8.3
-7.9
-7.2
-6.3
-5.6
-3.2
-2.1
-1.7
-1.6
-1.4
-1.2
-1.2
-1.2
-1.1
-1.1
-1.1
-1.1
-1.1
-1.1
-1.1
-1.1
-1.1
-1.1
-1.1
-1.1
-1.1
-8.5
-8.5
-8.3
-8.2
-8.0
-7.5
-6.8
-5.2
-3.5
-2.0
-1.6
-1.3
-1.2
-1.0
-1.0
-1.0
-1.0
-1.0
-1.0
-1.0
-1.0
-1.0
-1.0
-1.0
-1.0
-1.0
-1.0
-1.0
-1.0
-1.0
-1.0
-1.0
-1.0
-8.8
-8.6
-8.5
-8.3
-8.2
-7.6
-7.0
-5.6
-3.8
-1.8
-1.3
-1.3
-1.2
-1.1
-1.1
-1.1
-1.1
-1.1
-1.1
-1.1
-1.0
-1.0
-1.0
-1.0
-1.0
-1.0
-1.0
-1.0
-1.0
-1.0
-1.0